\ Model Modelo 1.1.1
\ LP format - for model browsing. Use MPS format to capture full model detail.
Minimize
  0 X[uno,dos,p,1,0] + 0 X[uno,dos,p,5,0] + 0 X[uno,dos,p,7,0]
   + 0 X[uno,tres,p,1,0] + 0 X[uno,tres,p,5,0] + 0 X[uno,tres,p,7,0]
   + 0 X[uno,cinco,p,1,0] + 0 X[uno,cinco,p,5,0] + 0 X[uno,cinco,p,7,0]
   + 0 X[dos,tres,p,1,0] + 0 X[dos,tres,p,5,0] + 0 X[dos,tres,p,7,0]
   + 0 X[dos,cuatro,p,1,0] + 0 X[dos,cuatro,p,5,0] + 0 X[dos,cuatro,p,7,0]
   + 0 X[tres,cuatro,p,1,0] + 0 X[tres,cuatro,p,5,0]
   + 0 X[tres,cuatro,p,7,0] + 0 X[tres,cinco,p,1,0] + 0 X[tres,cinco,p,5,0]
   + 0 X[cuatro,cinco,p,1,0] + 0 X[cuatro,cinco,p,5,0]
   + 0 X[cuatro,cinco,p,7,0] + 0 X[0,uno,p,1,0] + 0 X[0,uno,p,5,0]
   + 0 X[0,uno,p,7,0] + 0 X[0,dos,p,1,0] + 0 X[0,dos,p,5,0]
   + 0 X[0,dos,p,7,0] + 0 X[0,tres,p,1,0] + 0 X[0,tres,p,5,0]
   + 0 X[0,tres,p,7,0] + 0 X[0,cuatro,p,1,0] + 0 X[0,cuatro,p,5,0]
   + 0 X[0,cuatro,p,7,0] + 0 X[0,cinco,p,1,0] + 0 X[0,cinco,p,5,0]
   + 0 X[0,cinco,p,7,0] + 0 Y[uno,dos,p,1,0] + 0 Y[uno,dos,p,5,0]
   + 0 Y[uno,dos,p,7,0] + 0 Y[uno,tres,p,1,0] + 0 Y[uno,tres,p,5,0]
   + 0 Y[uno,tres,p,7,0] + 0 Y[uno,cinco,p,1,0] + 0 Y[uno,cinco,p,5,0]
   + 0 Y[uno,cinco,p,7,0] + 0 Y[dos,tres,p,1,0] + 0 Y[dos,tres,p,5,0]
   + 0 Y[dos,tres,p,7,0] + 0 Y[dos,cuatro,p,1,0] + 0 Y[dos,cuatro,p,5,0]
   + 0 Y[dos,cuatro,p,7,0] + 0 Y[tres,cuatro,p,1,0]
   + 0 Y[tres,cuatro,p,5,0] + 0 Y[tres,cuatro,p,7,0]
   + 0 Y[tres,cinco,p,1,0] + 0 Y[tres,cinco,p,5,0]
   + 0 Y[cuatro,cinco,p,1,0] + 0 Y[cuatro,cinco,p,5,0]
   + 0 Y[cuatro,cinco,p,7,0] + 0 A[0] + 0 A[uno] + 0 A[dos] + 0 A[tres]
   + 0 A[cuatro] + 0 BNA[uno,dos,p,1,0] + 0 BNA[uno,dos,p,5,0]
   + 0 BNA[uno,dos,p,7,0] + 0 BNA[uno,tres,p,1,0] + 0 BNA[uno,tres,p,5,0]
   + 0 BNA[uno,tres,p,7,0] + 0 BNA[uno,cinco,p,1,0]
   + 0 BNA[uno,cinco,p,5,0] + 0 BNA[uno,cinco,p,7,0]
   + 0 BNA[dos,tres,p,1,0] + 0 BNA[dos,tres,p,5,0] + 0 BNA[dos,tres,p,7,0]
   + 0 BNA[dos,cuatro,p,1,0] + 0 BNA[dos,cuatro,p,5,0]
   + 0 BNA[dos,cuatro,p,7,0] + 0 BNA[tres,cuatro,p,1,0]
   + 0 BNA[tres,cuatro,p,5,0] + 0 BNA[tres,cuatro,p,7,0]
   + 0 BNA[tres,cinco,p,1,0] + 0 BNA[tres,cinco,p,5,0]
   + 0 BNA[cuatro,cinco,p,1,0] + 0 BNA[cuatro,cinco,p,5,0]
   + 0 BNA[cuatro,cinco,p,7,0] + 0 BX[uno,dos,p,1,0] + 0 BX[uno,dos,p,5,0]
   + 0 BX[uno,dos,p,7,0] + 0 BX[uno,tres,p,1,0] + 0 BX[uno,tres,p,5,0]
   + 0 BX[uno,tres,p,7,0] + 0 BX[uno,cinco,p,1,0] + 0 BX[uno,cinco,p,5,0]
   + 0 BX[uno,cinco,p,7,0] + 0 BX[dos,tres,p,1,0] + 0 BX[dos,tres,p,5,0]
   + 0 BX[dos,tres,p,7,0] + 0 BX[dos,cuatro,p,1,0] + 0 BX[dos,cuatro,p,5,0]
   + 0 BX[dos,cuatro,p,7,0] + 0 BX[tres,cuatro,p,1,0]
   + 0 BX[tres,cuatro,p,5,0] + 0 BX[tres,cuatro,p,7,0]
   + 0 BX[tres,cinco,p,1,0] + 0 BX[tres,cinco,p,5,0]
   + 0 BX[cuatro,cinco,p,1,0] + 0 BX[cuatro,cinco,p,5,0]
   + 0 BX[cuatro,cinco,p,7,0]
Subject To
 Capital_(uno,tres,p,0): - 1000 BY[uno,dos,p,1,0] - 900 BY[uno,dos,p,5,0]
   - 100 BY[uno,dos,p,7,0] + 1100 BY[uno,tres,p,1,0]
   + 920 BY[uno,tres,p,5,0] + 90 BY[uno,tres,p,7,0]
   - 900 BY[dos,tres,p,1,0] - 850 BY[dos,tres,p,5,0]
   - 80 BY[dos,tres,p,7,0] <= 0
 Capital_(uno,cinco,p,0): - 1000 BY[uno,dos,p,1,0] - 900 BY[uno,dos,p,5,0]
   - 100 BY[uno,dos,p,7,0] + 1500 BY[uno,cinco,p,1,0]
   + 950 BY[uno,cinco,p,5,0] + 95 BY[uno,cinco,p,7,0]
   - 900 BY[dos,tres,p,1,0] - 850 BY[dos,tres,p,5,0]
   - 80 BY[dos,tres,p,7,0] - 800 BY[tres,cuatro,p,1,0]
   - 741 BY[tres,cuatro,p,5,0] - 150 BY[tres,cuatro,p,7,0]
   - 915 BY[cuatro,cinco,p,1,0] - 860 BY[cuatro,cinco,p,5,0]
   - 200 BY[cuatro,cinco,p,7,0] <= 0
 Capital_(uno,cinco,p,0): - 1000 BY[uno,dos,p,1,0] - 900 BY[uno,dos,p,5,0]
   - 100 BY[uno,dos,p,7,0] + 1500 BY[uno,cinco,p,1,0]
   + 950 BY[uno,cinco,p,5,0] + 95 BY[uno,cinco,p,7,0]
   - 900 BY[dos,tres,p,1,0] - 850 BY[dos,tres,p,5,0]
   - 80 BY[dos,tres,p,7,0] - 980 BY[tres,cinco,p,1,0]
   - 550 BY[tres,cinco,p,5,0] <= 0
 Capital_(uno,cinco,p,0): - 1000 BY[uno,dos,p,1,0] - 900 BY[uno,dos,p,5,0]
   - 100 BY[uno,dos,p,7,0] + 1500 BY[uno,cinco,p,1,0]
   + 950 BY[uno,cinco,p,5,0] + 95 BY[uno,cinco,p,7,0]
   - 930 BY[dos,cuatro,p,1,0] - 870 BY[dos,cuatro,p,5,0]
   - 70 BY[dos,cuatro,p,7,0] - 915 BY[cuatro,cinco,p,1,0]
   - 860 BY[cuatro,cinco,p,5,0] - 200 BY[cuatro,cinco,p,7,0] <= 0
 Capital_(uno,cinco,p,0): - 1100 BY[uno,tres,p,1,0]
   - 920 BY[uno,tres,p,5,0] - 90 BY[uno,tres,p,7,0]
   + 1500 BY[uno,cinco,p,1,0] + 950 BY[uno,cinco,p,5,0]
   + 95 BY[uno,cinco,p,7,0] - 800 BY[tres,cuatro,p,1,0]
   - 741 BY[tres,cuatro,p,5,0] - 150 BY[tres,cuatro,p,7,0]
   - 915 BY[cuatro,cinco,p,1,0] - 860 BY[cuatro,cinco,p,5,0]
   - 200 BY[cuatro,cinco,p,7,0] <= 0
 Capital_(uno,cinco,p,0): - 1100 BY[uno,tres,p,1,0]
   - 920 BY[uno,tres,p,5,0] - 90 BY[uno,tres,p,7,0]
   + 1500 BY[uno,cinco,p,1,0] + 950 BY[uno,cinco,p,5,0]
   + 95 BY[uno,cinco,p,7,0] - 980 BY[tres,cinco,p,1,0]
   - 550 BY[tres,cinco,p,5,0] <= 0
 Capital_(dos,cuatro,p,0): - 900 BY[dos,tres,p,1,0]
   - 850 BY[dos,tres,p,5,0] - 80 BY[dos,tres,p,7,0]
   + 930 BY[dos,cuatro,p,1,0] + 870 BY[dos,cuatro,p,5,0]
   + 70 BY[dos,cuatro,p,7,0] - 800 BY[tres,cuatro,p,1,0]
   - 741 BY[tres,cuatro,p,5,0] - 150 BY[tres,cuatro,p,7,0] <= 0
 Capital_(tres,cinco,p,0): - 800 BY[tres,cuatro,p,1,0]
   - 741 BY[tres,cuatro,p,5,0] + 980 BY[tres,cinco,p,1,0]
   + 550 BY[tres,cinco,p,5,0] - 915 BY[cuatro,cinco,p,1,0]
   - 860 BY[cuatro,cinco,p,5,0] <= 0
Bounds
Binaries
 BNA[uno,dos,p,1,0] BNA[uno,dos,p,5,0] BNA[uno,dos,p,7,0]
 BNA[uno,tres,p,1,0] BNA[uno,tres,p,5,0] BNA[uno,tres,p,7,0]
 BNA[uno,cinco,p,1,0] BNA[uno,cinco,p,5,0] BNA[uno,cinco,p,7,0]
 BNA[dos,tres,p,1,0] BNA[dos,tres,p,5,0] BNA[dos,tres,p,7,0]
 BNA[dos,cuatro,p,1,0] BNA[dos,cuatro,p,5,0] BNA[dos,cuatro,p,7,0]
 BNA[tres,cuatro,p,1,0] BNA[tres,cuatro,p,5,0] BNA[tres,cuatro,p,7,0]
 BNA[tres,cinco,p,1,0] BNA[tres,cinco,p,5,0] BNA[cuatro,cinco,p,1,0]
 BNA[cuatro,cinco,p,5,0] BNA[cuatro,cinco,p,7,0] BX[uno,dos,p,1,0]
 BX[uno,dos,p,5,0] BX[uno,dos,p,7,0] BX[uno,tres,p,1,0] BX[uno,tres,p,5,0]
 BX[uno,tres,p,7,0] BX[uno,cinco,p,1,0] BX[uno,cinco,p,5,0]
 BX[uno,cinco,p,7,0] BX[dos,tres,p,1,0] BX[dos,tres,p,5,0]
 BX[dos,tres,p,7,0] BX[dos,cuatro,p,1,0] BX[dos,cuatro,p,5,0]
 BX[dos,cuatro,p,7,0] BX[tres,cuatro,p,1,0] BX[tres,cuatro,p,5,0]
 BX[tres,cuatro,p,7,0] BX[tres,cinco,p,1,0] BX[tres,cinco,p,5,0]
 BX[cuatro,cinco,p,1,0] BX[cuatro,cinco,p,5,0] BX[cuatro,cinco,p,7,0]
 BY[uno,dos,p,1,0] BY[uno,dos,p,5,0] BY[uno,dos,p,7,0] BY[uno,tres,p,1,0]
 BY[uno,tres,p,5,0] BY[uno,tres,p,7,0] BY[uno,cinco,p,1,0]
 BY[uno,cinco,p,5,0] BY[uno,cinco,p,7,0] BY[dos,tres,p,1,0]
 BY[dos,tres,p,5,0] BY[dos,tres,p,7,0] BY[dos,cuatro,p,1,0]
 BY[dos,cuatro,p,5,0] BY[dos,cuatro,p,7,0] BY[tres,cuatro,p,1,0]
 BY[tres,cuatro,p,5,0] BY[tres,cuatro,p,7,0] BY[tres,cinco,p,1,0]
 BY[tres,cinco,p,5,0] BY[cuatro,cinco,p,1,0] BY[cuatro,cinco,p,5,0]
 BY[cuatro,cinco,p,7,0]
Generals
 X[uno,dos,p,1,0] X[uno,dos,p,5,0] X[uno,dos,p,7,0] X[uno,tres,p,1,0]
 X[uno,tres,p,5,0] X[uno,tres,p,7,0] X[uno,cinco,p,1,0] X[uno,cinco,p,5,0]
 X[uno,cinco,p,7,0] X[dos,tres,p,1,0] X[dos,tres,p,5,0] X[dos,tres,p,7,0]
 X[dos,cuatro,p,1,0] X[dos,cuatro,p,5,0] X[dos,cuatro,p,7,0]
 X[tres,cuatro,p,1,0] X[tres,cuatro,p,5,0] X[tres,cuatro,p,7,0]
 X[tres,cinco,p,1,0] X[tres,cinco,p,5,0] X[cuatro,cinco,p,1,0]
 X[cuatro,cinco,p,5,0] X[cuatro,cinco,p,7,0] X[0,uno,p,1,0] X[0,uno,p,5,0]
 X[0,uno,p,7,0] X[0,dos,p,1,0] X[0,dos,p,5,0] X[0,dos,p,7,0]
 X[0,tres,p,1,0] X[0,tres,p,5,0] X[0,tres,p,7,0] X[0,cuatro,p,1,0]
 X[0,cuatro,p,5,0] X[0,cuatro,p,7,0] X[0,cinco,p,1,0] X[0,cinco,p,5,0]
 X[0,cinco,p,7,0] Y[uno,dos,p,1,0] Y[uno,dos,p,5,0] Y[uno,dos,p,7,0]
 Y[uno,tres,p,1,0] Y[uno,tres,p,5,0] Y[uno,tres,p,7,0] Y[uno,cinco,p,1,0]
 Y[uno,cinco,p,5,0] Y[uno,cinco,p,7,0] Y[dos,tres,p,1,0] Y[dos,tres,p,5,0]
 Y[dos,tres,p,7,0] Y[dos,cuatro,p,1,0] Y[dos,cuatro,p,5,0]
 Y[dos,cuatro,p,7,0] Y[tres,cuatro,p,1,0] Y[tres,cuatro,p,5,0]
 Y[tres,cuatro,p,7,0] Y[tres,cinco,p,1,0] Y[tres,cinco,p,5,0]
 Y[cuatro,cinco,p,1,0] Y[cuatro,cinco,p,5,0] Y[cuatro,cinco,p,7,0] A[0]
 A[uno] A[dos] A[tres] A[cuatro]
End
